1243
4628
7500
8113
1784
5520
6821
9156
3957
450
4320
7717
6807
1612
1672
888
3466
7869
9754
7350
8851
4119
423
3714
2755
580
7198
5090
4760
3068
7762
3468
4550
9063
5335
818
4337
4350
2801
8318
8142
7165
6536
4870
1144
7475
665
2882
9013
5715
4004
